21482 20586 2 3 4 5 6 7 9 10 12 13 14 15 16 19 20 21 22 23 24 27 28 30 31 33 34 35 36 37 38 39 40 42 43 44 46 48 50 51 52 54 55 56 57 58 59 60 61 63 64 65 66 67 68 69 70 72 73 74 76 77 78 79 80 81 82 84 85 86 87 88 90 91 93 94 95 96 97 98 100 102 103 104 105 106 107 108 109 111 112 113 114 115 117 118 119 120 123 124 125 126 127 129 130 131 132 134 135 136 137 139 140 141 143 144 145 146 148 149 150 151 152 154 155 156 157 158 159 160 161 162 163 164 165 166 167 168 169 172 173 174 175 176 177 178 179 180 182 183 184 185 186 187 188 189 190 191 192 193 194 195 196 197 198 199 201 202 203 205 207 209 211 212 213 214 215 217 218 219 221 222 223 225 226 227 230 231 232 233 234 235 236 237 238 239 241 242 244 246 247 248 250 251 252 253 255 256 257 258 259 260 262 263 264 266 267 268 269 270 271 272 273 278 280 281 283 284 285 288 290 291 292 293 294 295 296 297 298 301 304 305 306 307 310 311 312 313 314 315 316 317 318 319 320 321 322 323 324 325 328 330 333 334 336 337 338 341 342 343 344 346 347 348 349 350 351 353 354 355 356 357 358 359 360 361 362 363 365 366 367 368 369 370 371 372 375 376 378 379 380 382 383 384 386 387 388 389 390 391 392 393 395 396 398 399 401 402 403 404 405 407 408 409 411 412 413 415 416 418 419 420 421 423 424 425 426 427 429 430 431 432 433 434 435 436 437 439 440 441 443 444 445 446 448 449 451 452 453 454 455 456 457 459 460 461 462 466 467 469 470 471 473 474 475 477 478 479 480 481 482 483 484 489 492 493 494 495 496 497 498 499 500 